100 151274
28 20 3 18 59 12 71 38 26 76 79 97 78 42 87 40 55 75 70 37 88 72 73 48 19 43 11 17 45 46 65 21 16 98 56 13 92 41 36 64 68 15 30 84 49 22 25 52 80 29 86 93 31 54 33 34 6 2 14 74 53 8 90 60 35 50 47 96 5 61 10 7 77 99 24 69 83 32 91 95 67 23 51 81 58 82 27 44 100 85 1 66 9 94 57 39 89 4 62 63 
